{"lblp_lower": [625.1611039409951, 722.5977671235377, 744.0589082161362, 756.3968750000001, 760.1418918918919, 761.1815789473686, 762.1583333333334], "cuttingPlaneBendInfo": [{"tot_cut_value": 0, "TOT_gen_cut": 0, "tot_time_opt": 0, "max_time_opt": 0}, {"tot_cut_value": 0, "TOT_gen_cut": 0, "tot_time_opt": 0, "max_time_opt": 0}, {"tot_cut_value": 0, "TOT_gen_cut": 0, "tot_time_opt": 0, "max_time_opt": 0}, {"tot_cut_value": 0, "TOT_gen_cut": 0, "tot_time_opt": 0, "max_time_opt": 0}, {"tot_cut_value": 0, "TOT_gen_cut": 0, "tot_time_opt": 0, "max_time_opt": 0}, {"tot_cut_value": 0, "TOT_gen_cut": 0, "tot_time_opt": 0, "max_time_opt": 0}, {"tot_cut_value": 0, "TOT_gen_cut": 0, "tot_time_opt": 0, "max_time_opt": 0}], "time_compress": [0, 0, 0, 0, 0, 0, 0], "ub_lp": [860.4000000000001, 793.1318181818183, 782.6692307692308, 771.0214285714287, 768.1592592592593, 763.276388888889, 762.1583333333334], "prob_sizes_at_start": [{"timeGraph": 78, "ngGraph": 52}, {"timeGraph": 136, "ngGraph": 89}, {"timeGraph": 214, "ngGraph": 99}, {"timeGraph": 328, "ngGraph": 122}, {"timeGraph": 317, "ngGraph": 124}, {"timeGraph": 338, "ngGraph": 125}, {"timeGraph": 482, "ngGraph": 129}], "prob_sizes_after_compress": [{"timeGraph": 35, "ngGraph": 38}, {"timeGraph": 76, "ngGraph": 36}, {"timeGraph": 129, "ngGraph": 32}, {"timeGraph": 158, "ngGraph": 35}, {"timeGraph": 170, "ngGraph": 37}, {"timeGraph": 192, "ngGraph": 32}, {"timeGraph": 195, "ngGraph": 38}], "prob_sizes_after_split": [{"timeGraph": 136, "ngGraph": 89}, {"timeGraph": 214, "ngGraph": 99}, {"timeGraph": 328, "ngGraph": 122}, {"timeGraph": 317, "ngGraph": 124}, {"timeGraph": 338, "ngGraph": 125}, {"timeGraph": 482, "ngGraph": 129}, {"timeGraph": 242, "ngGraph": 65}], "did_compress": [true, true, true, true, true, true, true], "lp_time_project": [1.0995910167694092, 0.32624292373657227, 0.31984686851501465, 0.17540931701660156, 0.24689793586730957, 0.2383742332458496, 0.2629818916320801], "lp_time_LB": [0.13878893852233887, 0.23806524276733398, 0.3296849727630615, 0.3187692165374756, 0.1765599250793457, 0.15280771255493164, 0.17374897003173828], "ilp_time": [], "history_of_graphs_by_iter": [], "ROOT_LP_PRIOR_ADDING_CUTS": 762.1583333333334, "OUR_ilp_objective": 772.9000000000002, "OUR_MIP_Lower_Bound": 772.9, "OUR_ilp_time": 0.9562849998474121, "OUR_gurobi_MILP_str": "Gurobi Optimizer version 12.0.1 build v12.0.1rc0 (mac64[arm] - Darwin 24.5.0 24F74)\n\nCPU model: Apple M1\nThread count: 8 physical cores, 8 logical processors, using up to 8 threads\n\nNon-default parameters:\nTimeLimit  3000\n\nWLS license 2690165 - registered to Optym\nOptimize a model with 8618 rows, 6422 columns and 36908 nonzeros\nModel fingerprint: 0xbe80f4ec\nVariable types: 102 continuous, 6320 integer (2744 binary)\nCoefficient statistics:\n  Matrix range     [2e-01, 2e+02]\n  Objective range  [5e+00, 8e+01]\n  Bounds range     [1e-01, 2e+02]\n  RHS range        [1e+00, 2e+02]\nUsing branch priorities.\nPresolve removed 7262 rows and 3280 columns\nPresolve time: 0.03s\nPresolved: 1356 rows, 3142 columns, 11454 nonzeros\nVariable types: 93 continuous, 3049 integer (2876 binary)\nFound heuristic solution: objective 1464.5000000\n\nRoot relaxation: objective 7.621583e+02, 2098 iterations, 0.05 seconds (0.09 work units)\n\n    Nodes    |    Current Node    |     Objective Bounds      |     Work\n Expl Unexpl |  Obj  Depth IntInf | Incumbent    BestBd   Gap | It/Node Time\n\n     0     0  762.15833    0   84 1464.50000  762.15833  48.0%     -    0s\nH    0     0                     951.6000000  762.15833  19.9%     -    0s\nH    0     0                     846.9000000  762.15833  10.0%     -    0s\nH    0     0                     837.4000000  762.15833  8.99%     -    0s\nH    0     0                     835.4000000  762.15833  8.77%     -    0s\nH    0     0                     785.7000000  762.15833  3.00%     -    0s\nH    0     0                     782.6000000  762.15833  2.61%     -    0s\n     0     0  766.62500    0  125  782.60000  766.62500  2.04%     -    0s\n     0     0  766.96667    0  125  782.60000  766.96667  2.00%     -    0s\n     0     0  768.89286    0  199  782.60000  768.89286  1.75%     -    0s\n     0     0  769.20000    0  190  782.60000  769.20000  1.71%     -    0s\n     0     0  769.27333    0  133  782.60000  769.27333  1.70%     -    0s\n     0     0  769.56000    0  130  782.60000  769.56000  1.67%     -    0s\nH    0     0                     780.7000000  769.56000  1.43%     -    0s\n     0     0  770.76535    0  233  780.70000  770.76535  1.27%     -    0s\n     0     0  771.05667    0   86  780.70000  771.05667  1.24%     -    0s\nH    0     0                     779.9000000  771.05667  1.13%     -    0s\nH    0     0                     779.4000000  771.05667  1.07%     -    0s\n     0     0  771.05667    0  158  779.40000  771.05667  1.07%     -    0s\n     0     0  771.05667    0  164  779.40000  771.05667  1.07%     -    0s\n     0     0  771.05667    0  226  779.40000  771.05667  1.07%     -    0s\n     0     0  771.05667    0  241  779.40000  771.05667  1.07%     -    0s\n     0     0  771.05667    0  237  779.40000  771.05667  1.07%     -    0s\nH    0     0                     772.9000000  771.05667  0.24%     -    0s\n     0     0  771.05667    0   96  772.90000  771.05667  0.24%     -    0s\n     0     0  771.05667    0  110  772.90000  771.05667  0.24%     -    0s\n     0     0  771.05667    0   98  772.90000  771.05667  0.24%     -    0s\n     0     0  771.05667    0  126  772.90000  771.05667  0.24%     -    0s\n     0     0  771.05667    0  147  772.90000  771.05667  0.24%     -    0s\n     0     0  771.05667    0  133  772.90000  771.05667  0.24%     -    0s\n     0     0  771.05667    0  141  772.90000  771.05667  0.24%     -    0s\n     0     0  771.05667    0  147  772.90000  771.05667  0.24%     -    0s\n     0     0  771.05667    0  152  772.90000  771.05667  0.24%     -    0s\n     0     0  771.05667    0  147  772.90000  771.05667  0.24%     -    0s\n     0     0  771.05667    0  143  772.90000  771.05667  0.24%     -    0s\n     0     0  771.05667    0  142  772.90000  771.05667  0.24%     -    0s\n     0     0  772.90000    0  151  772.90000  772.90000  0.00%     -    0s\n\nCutting planes:\n  Learned: 1\n  Gomory: 7\n  Implied bound: 15\n  Clique: 2\n  MIR: 10\n  Zero half: 12\n\nExplored 1 nodes (7795 simplex iterations) in 0.95 seconds (1.08 work units)\nThread count was 8 (of 8 available processors)\n\nSolution count 10: 772.9 779.4 779.4 ... 837.4\n\nOptimal solution found (tolerance 1.00e-04)\nBest objective 7.729000000000e+02, best bound 7.729000000000e+02, gap 0.0000%\n", "jy_opt": {"ParetoEps": 1e-05, "turn_off_time_windows": false, "deactivate_time_graph": false, "deactivate_demand_graph": false, "epsilon": 0.0001, "weight_slack_projector": 1e-05, "weight_compress": 0.01, "num_cust_use": 50, "dem_step_sz": 1, "time_step_sz": 1, "use_compression": 1, "max_iterations_loop_compress_project": 50, "do_round_dist_times": 1, "my_shift_bet_time_win": 0.0001, "num_terms_per_bin_init_construct": 100, "allOneBig_init": 0, "min_inc_2_compress": 1e-05, "save_graph_each_iter": 0, "use_Xpress": 0, "use_ineq": false, "xpress_file_loc": "/Users/julian/Documents/FICO_Xpress_Config/xpauth.xpr", "run_baseline": 0, "verbose": 0, "use_NG_graph": 1, "num_NG": 9, "in_demo_mode": 0, "threshold_split": 0.1, "offset_cost_edge_project": 0, "use_classic_compress": 1, "use_classic_compress_last": 1, "num_thresh_split_projector": 1000, "lplb_solver": 4, "compresss_solver": 0, "proj_solver": 4, "use_julians_custom_lp_solver": 0, "do_ilp": 1, "roundingDiscretization_num_digits_keep": 3, "doExrtraRemovalEdgesLB": 0, "use_gurobi": 1, "max_ILP_time": 3000, "use_fancy_ng_graph": 1, "use_dem_graph": 0, "use_time_graph": 1, "num_multiplys_demand": 0, "DEBUG_ALLOW_DUMB_EDGES": 0, "add_all_ng_split_at_end": 0, "do_split_based_init": 0, "think_compress": [0], "use_delta_in_milp": 1, "use_delta_in_lp": 1, "turn_off_non_active_fg_project": 0, "use_new_valid_ineq": 0, "digit_mult_use": 10, "use_branch_on_g": true, "LAB_MP_ON": 0, "LAB_MP_neigh_use_power": 9, "LAB_MP_num_ineq_use": 10, "do_remove_actions_from_incumbant": true, "ub_use_remove": 772.9, "use_packing_in_construction": 1, "maxVarsAdd_in_ITER": 10, "use_ng_size_init": 0, "do_presolve": 0, "use_diving_ineq": 1, "BEND_MIN_LP_OBJECTIVE_CUT": 0.1, "BEND_USE_RAND": 0, "BEND_MAX_SIZE_CHOOSE_K": 230, "BEND_VAL_STOP_ADDING_CUTS": 100000000, "BEND_MY_SIZES_USE": [9], "NUMERICAL_BEND_OFFSET_COST_CUT": 0.0001, "NUMERICAL_BEND_EPSILON_MULT_PARETO_OBJ": 0.001, "NO_PARETO_NUMERICAL_BEND_OFFSET_COST_CUT": 0, "NO_PARETO_BEND_VAL_STOP_ADDING_CUTS": 1, "NO_PARETO_EPSILON_MAX_VAL_CON": 0.01, "BENDERS_NEIGH_SZ_USE": 9, "Actions_of_given_sol": [], "all_vars_binary": 1, "restore_after_each_step": 1, "use_ng": 1, "compress_solver": 1, "DEBUG_NG_turn_off_CLEAN": false, "max_nodes_split": Infinity}, "output_ilp_solution": {"delta_capRem_0": 1.0, "delta_timeRem_0": 26.0, "delta_capRem_1": 3.0, "delta_timeRem_1": 100.8, "delta_capRem_2": 1.3, "delta_timeRem_2": 42.8, "delta_capRem_3": 4.2, "delta_timeRem_3": 81.0, "delta_capRem_4": 2.6, "delta_timeRem_4": 31.0, "delta_capRem_5": 18.4, "delta_timeRem_5": 121.0, "delta_capRem_6": 0.5, "delta_timeRem_6": 32.0, "delta_capRem_7": 2.1, "delta_timeRem_7": 135.0, "delta_capRem_8": 5.1, "delta_timeRem_8": 132.4, "delta_capRem_9": 12.3, "delta_timeRem_9": 96.0, "delta_capRem_10": 12.7, "delta_timeRem_10": 160.0, "delta_capRem_11": 8.2, "delta_timeRem_11": 204.5, "delta_capRem_12": 2.3, "delta_timeRem_12": 61.0, "delta_capRem_13": 10.1, "delta_timeRem_13": 187.7, "delta_capRem_14": 4.3, "delta_timeRem_14": 159.0, "delta_capRem_15": 4.7, "delta_timeRem_15": 84.1, "delta_capRem_16": 2.8, "delta_timeRem_16": 63.0, "delta_capRem_17": 1.2, "delta_timeRem_17": 26.0, "delta_capRem_18": 11.5, "delta_timeRem_18": 134.0, "delta_capRem_19": 17.6, "delta_timeRem_19": 166.0, "delta_capRem_20": 13.1, "delta_timeRem_20": 212.0, "delta_capRem_21": 6.0, "delta_timeRem_21": 123.0, "delta_capRem_22": 8.9, "delta_timeRem_22": 156.1, "delta_capRem_23": 6.3, "delta_timeRem_23": 179.5, "delta_capRem_24": 2.3, "delta_timeRem_24": 58.0, "delta_capRem_25": 1.7, "delta_timeRem_25": 22.0, "delta_capRem_26": 20.0, "delta_timeRem_26": 183.0, "delta_capRem_27": 9.8, "delta_timeRem_27": 223.7, "delta_capRem_28": 6.0, "delta_timeRem_28": 162.5, "delta_capRem_29": 16.7, "delta_timeRem_29": 149.0, "delta_capRem_30": 3.7, "delta_timeRem_30": 46.4, "delta_capRem_31": 14.6, "delta_timeRem_31": 116.2, "delta_capRem_32": 18.7, "delta_timeRem_32": 191.2, "delta_capRem_33": 2.7, "delta_timeRem_33": 66.9, "delta_capRem_34": 3.5, "delta_timeRem_34": 87.0, "delta_capRem_35": 20.0, "delta_timeRem_35": 188.6, "delta_capRem_36": 10.9, "delta_timeRem_36": 208.8, "delta_capRem_37": 6.3, "delta_timeRem_37": 140.2, "delta_capRem_38": 12.0, "delta_timeRem_38": 176.0, "delta_capRem_39": 0.9, "delta_timeRem_39": 145.0, "delta_capRem_40": 3.5, "delta_timeRem_40": 123.0, "delta_capRem_41": 5.5, "delta_timeRem_41": 199.0, "delta_capRem_42": 5.0, "delta_timeRem_42": 176.2, "delta_capRem_43": 8.1, "delta_timeRem_43": 161.0, "delta_capRem_44": 3.8, "delta_timeRem_44": 188.0, "delta_capRem_45": 2.2, "delta_timeRem_45": 154.4, "delta_capRem_46": 6.8, "delta_timeRem_46": 89.9, "delta_capRem_47": 4.1, "delta_timeRem_47": 73.5, "delta_capRem_48": 9.8, "delta_timeRem_48": 112.0, "delta_capRem_49": 20.0, "delta_timeRem_49": 213.1, "act_0_51": 1, "act_1_12": 1, "act_2_51": 1, "act_3_24": 1, "act_4_51": 1, "act_5_51": 1, "act_6_51": 1, "act_7_17": 1, "act_8_34": 1, "act_9_30": 1, "act_10_18": 1, "act_11_23": 1, "act_12_51": 1, "act_13_43": 1, "act_14_40": 1, "act_15_16": 1, "act_16_4": 1, "act_17_51": 1, "act_18_48": 1, "act_19_29": 1, "act_20_38": 1, "act_21_3": 1, "act_22_21": 1, "act_23_28": 1, "act_24_25": 1, "act_25_51": 1, "act_26_5": 1, "act_27_11": 1, "act_28_8": 1, "act_29_31": 1, "act_30_0": 1, "act_31_9": 1, "act_32_19": 1, "act_33_2": 1, "act_34_33": 1, "act_35_10": 1, "act_36_13": 1, "act_37_15": 1, "act_38_22": 1, "act_39_51": 1, "act_40_1": 1, "act_41_42": 1, "act_42_14": 1, "act_43_37": 1, "act_44_45": 1, "act_45_7": 1, "act_46_47": 1, "act_47_6": 1, "act_48_46": 1, "act_49_32": 1, "act_50_20": 1, "act_50_26": 1, "act_50_27": 1, "act_50_35": 1, "act_50_36": 1, "act_50_39": 1, "act_50_41": 1, "act_50_44": 1, "act_50_49": 1}, "Actions_of_given_sol": "none just used source and sink terms", "actions_used": ["act_0_51", "act_1_12", "act_2_51", "act_3_24", "act_4_51", "act_5_51", "act_6_51", "act_7_17", "act_8_34", "act_9_30", "act_10_18", "act_11_23", "act_12_51", "act_13_43", "act_14_40", "act_15_16", "act_16_4", "act_17_51", "act_18_48", "act_19_29", "act_20_38", "act_21_3", "act_22_21", "act_23_28", "act_24_25", "act_25_51", "act_26_5", "act_27_11", "act_28_8", "act_29_31", "act_30_0", "act_31_9", "act_32_19", "act_33_2", "act_34_33", "act_35_10", "act_36_13", "act_37_15", "act_38_22", "act_39_51", "act_40_1", "act_41_42", "act_42_14", "act_43_37", "act_44_45", "act_45_7", "act_46_47", "act_47_6", "act_48_46", "act_49_32", "act_50_20", "act_50_26", "act_50_27", "act_50_35", "act_50_36", "act_50_39", "act_50_41", "act_50_44", "act_50_49"], "init_default_solution_is_empty": false, "objective_of_initial_sol": 2620.8000000000006, "my_paths": "[[50, 20, 38, 22, 21, 3, 24, 25, 51], [50, 26, 5, 51], [50, 27, 11, 23, 28, 8, 34, 33, 2, 51], [50, 35, 10, 18, 48, 46, 47, 6, 51], [50, 36, 13, 43, 37, 15, 16, 4, 51], [50, 39, 51], [50, 41, 42, 14, 40, 1, 12, 51], [50, 44, 45, 7, 17, 51], [50, 49, 32, 19, 29, 31, 9, 30, 0, 51]]"}